# Solution for model MIP
# Objective value = -1.3510402970875484e+03
q_s0 1
q_s1 0
q_s2 0
q_s3 0
q_s4 0
q_s5 0
q_s6 0
q_s7 0
q_s8 0
q_s9 0
q_s10 0
q_s11 0
q_s12 0
q_s13 0
q_s14 0
theta -1.3495999999999985e+03
z_w0_k0_m0 8.5636856368564662e-02
z_w0_k1_m0 3.0000000000000071e-01
z_w1_k0_m0 8.5636856368564676e-02
z_w1_k1_m0 3.0000000000000077e-01
z_w2_k0_m0 1.3547332025044259e-01
z_w2_k1_m0 3.0000000000000077e-01
z_w3_k0_m0 8.5636856368564662e-02
z_w3_k1_m0 3.0000000000000066e-01
z_w4_k0_m0 8.5636856368564662e-02
z_w4_k1_m0 3.0000000000000071e-01
pi_w0_t0_k0 0
pi_w0_t0_k1 0
pi_w0_t1_k0 0
pi_w0_t1_k1 0
pi_w0_t2_k0 0
pi_w0_t2_k1 0
pi_w0_t3_k0 0
pi_w0_t3_k1 0
pi_w0_t4_k0 0
pi_w0_t4_k1 0
pi_w0_t5_k0 0
pi_w0_t5_k1 0
pi_w0_t6_k0 1.0292891390452483e-01
pi_w0_t6_k1 3.6057692307692391e-01
pi_w0_t7_k0 8.9707108609547515e-01
pi_w0_t7_k1 6.3942307692307598e-01
pi_w1_t0_k0 2.8545618789521554e-01
pi_w1_t0_k1 1.0000000000000024e+00
pi_w1_t1_k0 0
pi_w1_t1_k1 0
pi_w1_t2_k0 0
pi_w1_t2_k1 0
pi_w1_t3_k0 0
pi_w1_t3_k1 0
pi_w1_t4_k0 0
pi_w1_t4_k1 0
pi_w1_t5_k0 0
pi_w1_t5_k1 0
pi_w1_t6_k0 0
pi_w1_t6_k1 0
pi_w1_t7_k0 7.1454381210478446e-01
pi_w1_t7_k1 -2.4424906541753444e-15
pi_w2_t0_k0 4.5157773416814190e-01
pi_w2_t0_k1 1.0000000000000024e+00
pi_w2_t1_k0 0
pi_w2_t1_k1 0
pi_w2_t2_k0 0
pi_w2_t2_k1 0
pi_w2_t3_k0 0
pi_w2_t3_k1 0
pi_w2_t4_k0 0
pi_w2_t4_k1 0
pi_w2_t5_k0 0
pi_w2_t5_k1 0
pi_w2_t6_k0 0
pi_w2_t6_k1 0
pi_w2_t7_k0 5.4842226583185805e-01
pi_w2_t7_k1 -2.4424906541753444e-15
pi_w3_t0_k0 2.8545618789521549e-01
pi_w3_t0_k1 1.0000000000000020e+00
pi_w3_t1_k0 0
pi_w3_t1_k1 0
pi_w3_t2_k0 0
pi_w3_t2_k1 0
pi_w3_t3_k0 0
pi_w3_t3_k1 0
pi_w3_t4_k0 0
pi_w3_t4_k1 0
pi_w3_t5_k0 0
pi_w3_t5_k1 0
pi_w3_t6_k0 0
pi_w3_t6_k1 0
pi_w3_t7_k0 7.1454381210478446e-01
pi_w3_t7_k1 -1.9984014443252818e-15
pi_w4_t0_k0 0
pi_w4_t0_k1 0
pi_w4_t1_k0 0
pi_w4_t1_k1 0
pi_w4_t2_k0 0
pi_w4_t2_k1 0
pi_w4_t3_k0 0
pi_w4_t3_k1 0
pi_w4_t4_k0 0
pi_w4_t4_k1 0
pi_w4_t5_k0 0
pi_w4_t5_k1 0
pi_w4_t6_k0 1.0292891390452483e-01
pi_w4_t6_k1 3.6057692307692391e-01
pi_w4_t7_k0 8.9707108609547515e-01
pi_w4_t7_k1 6.3942307692307598e-01
n_w0_t0_k0 0
n_w0_t0_k1 0
n_w0_t1_k0 0
n_w0_t1_k1 0
n_w0_t2_k0 0
n_w0_t2_k1 0
n_w0_t3_k0 0
n_w0_t3_k1 0
n_w0_t4_k0 0
n_w0_t4_k1 0
n_w0_t5_k0 0
n_w0_t5_k1 0
n_w0_t6_k0 0
n_w0_t6_k1 0
n_w0_t7_k0 0
n_w0_t7_k1 0
n_w1_t0_k0 3.4254742547425865e+00
n_w1_t0_k1 2.0100000000000048e+02
n_w1_t1_k0 0
n_w1_t1_k1 0
n_w1_t2_k0 0
n_w1_t2_k1 0
n_w1_t3_k0 0
n_w1_t3_k1 0
n_w1_t4_k0 0
n_w1_t4_k1 0
n_w1_t5_k0 0
n_w1_t5_k1 0
n_w1_t6_k0 0
n_w1_t6_k1 0
n_w1_t7_k0 8.5745257452574144e+00
n_w1_t7_k1 -4.9094062148924422e-13
n_w2_t0_k0 7.8574525745256693e+01
n_w2_t0_k1 1.1700000000000027e+02
n_w2_t1_k0 0
n_w2_t1_k1 0
n_w2_t2_k0 0
n_w2_t2_k1 0
n_w2_t3_k0 0
n_w2_t3_k1 0
n_w2_t4_k0 0
n_w2_t4_k1 0
n_w2_t5_k0 0
n_w2_t5_k1 0
n_w2_t6_k0 0
n_w2_t6_k1 0
n_w2_t7_k0 9.5425474254743307e+01
n_w2_t7_k1 -2.8577140653851529e-13
n_w3_t0_k0 5.1382113821138793e+00
n_w3_t0_k1 2.0700000000000043e+02
n_w3_t1_k0 0
n_w3_t1_k1 0
n_w3_t2_k0 0
n_w3_t2_k1 0
n_w3_t3_k0 0
n_w3_t3_k1 0
n_w3_t4_k0 0
n_w3_t4_k1 0
n_w3_t5_k0 0
n_w3_t5_k1 0
n_w3_t6_k0 0
n_w3_t6_k1 0
n_w3_t7_k0 1.2861788617886120e+01
n_w3_t7_k1 -4.1366909897533333e-13
n_w4_t0_k0 0
n_w4_t0_k1 0
n_w4_t1_k0 0
n_w4_t1_k1 0
n_w4_t2_k0 0
n_w4_t2_k1 0
n_w4_t3_k0 0
n_w4_t3_k1 0
n_w4_t4_k0 0
n_w4_t4_k1 0
n_w4_t5_k0 0
n_w4_t5_k1 0
n_w4_t6_k0 0
n_w4_t6_k1 0
n_w4_t7_k0 0
n_w4_t7_k1 0
o_w0_r0 0
o_w0_r1 0
o_w0_r2 0
o_w1_r0 4.4254742547430403e+00
o_w1_r1 0
o_w1_r2 0
o_w2_r0 0
o_w2_r1 0
o_w2_r2 0
o_w3_r0 1.2138211382114307e+01
o_w3_r1 0
o_w3_r2 0
o_w4_r0 1.2138211382114307e+01
o_w4_r1 0
o_w4_r2 0
y_w0_r0 0
y_w0_r1 0
y_w0_r2 0
y_w1_r0 2
y_w1_r1 0
y_w1_r2 0
y_w2_r0 2
y_w2_r1 0
y_w2_r2 0
y_w3_r0 2
y_w3_r1 0
y_w3_r2 0
y_w4_r0 0
y_w4_r1 0
y_w4_r2 1
p_w0 6
s_w0 6
p_w1 6
s_w1 0
p_w2 6
s_w2 0
p_w3 6
s_w3 0
p_w4 6
s_w4 0
yb_w0_r0_s0 0
yb_w0_r1_s0 0
yb_w0_r2_s0 0
yb_w1_r0_s0 0
yb_w1_r1_s0 0
yb_w1_r2_s0 0
yb_w2_r0_s0 0
yb_w2_r1_s0 0
yb_w2_r2_s0 0
yb_w3_r0_s0 0
yb_w3_r1_s0 0
yb_w3_r2_s0 0
yb_w4_r0_s0 0
yb_w4_r1_s0 0
yb_w4_r2_s0 1
yb_w0_r0_s1 0
yb_w0_r1_s1 0
yb_w0_r2_s1 0
yb_w1_r0_s1 0
yb_w1_r1_s1 0
yb_w1_r2_s1 0
yb_w2_r0_s1 0
yb_w2_r1_s1 0
yb_w2_r2_s1 0
yb_w3_r0_s1 0
yb_w3_r1_s1 0
yb_w3_r2_s1 0
yb_w4_r0_s1 0
yb_w4_r1_s1 0
yb_w4_r2_s1 0
yb_w0_r0_s2 0
yb_w0_r1_s2 0
yb_w0_r2_s2 0
yb_w1_r0_s2 0
yb_w1_r1_s2 0
yb_w1_r2_s2 0
yb_w2_r0_s2 0
yb_w2_r1_s2 0
yb_w2_r2_s2 0
yb_w3_r0_s2 0
yb_w3_r1_s2 0
yb_w3_r2_s2 0
yb_w4_r0_s2 0
yb_w4_r1_s2 0
yb_w4_r2_s2 0
yb_w0_r0_s3 0
yb_w0_r1_s3 0
yb_w0_r2_s3 0
yb_w1_r0_s3 0
yb_w1_r1_s3 0
yb_w1_r2_s3 0
yb_w2_r0_s3 0
yb_w2_r1_s3 0
yb_w2_r2_s3 0
yb_w3_r0_s3 0
yb_w3_r1_s3 0
yb_w3_r2_s3 0
yb_w4_r0_s3 0
yb_w4_r1_s3 0
yb_w4_r2_s3 0
yb_w0_r0_s4 0
yb_w0_r1_s4 0
yb_w0_r2_s4 0
yb_w1_r0_s4 0
yb_w1_r1_s4 0
yb_w1_r2_s4 0
yb_w2_r0_s4 0
yb_w2_r1_s4 0
yb_w2_r2_s4 0
yb_w3_r0_s4 0
yb_w3_r1_s4 0
yb_w3_r2_s4 0
yb_w4_r0_s4 0
yb_w4_r1_s4 0
yb_w4_r2_s4 0
yb_w0_r0_s5 0
yb_w0_r1_s5 0
yb_w0_r2_s5 0
yb_w1_r0_s5 0
yb_w1_r1_s5 0
yb_w1_r2_s5 0
yb_w2_r0_s5 0
yb_w2_r1_s5 0
yb_w2_r2_s5 0
yb_w3_r0_s5 0
yb_w3_r1_s5 0
yb_w3_r2_s5 0
yb_w4_r0_s5 0
yb_w4_r1_s5 0
yb_w4_r2_s5 0
yb_w0_r0_s6 0
yb_w0_r1_s6 0
yb_w0_r2_s6 0
yb_w1_r0_s6 0
yb_w1_r1_s6 0
yb_w1_r2_s6 0
yb_w2_r0_s6 0
yb_w2_r1_s6 0
yb_w2_r2_s6 0
yb_w3_r0_s6 0
yb_w3_r1_s6 0
yb_w3_r2_s6 0
yb_w4_r0_s6 0
yb_w4_r1_s6 0
yb_w4_r2_s6 0
yb_w0_r0_s7 0
yb_w0_r1_s7 0
yb_w0_r2_s7 0
yb_w1_r0_s7 0
yb_w1_r1_s7 0
yb_w1_r2_s7 0
yb_w2_r0_s7 0
yb_w2_r1_s7 0
yb_w2_r2_s7 0
yb_w3_r0_s7 0
yb_w3_r1_s7 0
yb_w3_r2_s7 0
yb_w4_r0_s7 0
yb_w4_r1_s7 0
yb_w4_r2_s7 0
yb_w0_r0_s8 0
yb_w0_r1_s8 0
yb_w0_r2_s8 0
yb_w1_r0_s8 0
yb_w1_r1_s8 0
yb_w1_r2_s8 0
yb_w2_r0_s8 0
yb_w2_r1_s8 0
yb_w2_r2_s8 0
yb_w3_r0_s8 0
yb_w3_r1_s8 0
yb_w3_r2_s8 0
yb_w4_r0_s8 0
yb_w4_r1_s8 0
yb_w4_r2_s8 0
yb_w0_r0_s9 0
yb_w0_r1_s9 0
yb_w0_r2_s9 0
yb_w1_r0_s9 0
yb_w1_r1_s9 0
yb_w1_r2_s9 0
yb_w2_r0_s9 0
yb_w2_r1_s9 0
yb_w2_r2_s9 0
yb_w3_r0_s9 0
yb_w3_r1_s9 0
yb_w3_r2_s9 0
yb_w4_r0_s9 0
yb_w4_r1_s9 0
yb_w4_r2_s9 0
yb_w0_r0_s10 0
yb_w0_r1_s10 0
yb_w0_r2_s10 0
yb_w1_r0_s10 0
yb_w1_r1_s10 0
yb_w1_r2_s10 0
yb_w2_r0_s10 0
yb_w2_r1_s10 0
yb_w2_r2_s10 0
yb_w3_r0_s10 0
yb_w3_r1_s10 0
yb_w3_r2_s10 0
yb_w4_r0_s10 0
yb_w4_r1_s10 0
yb_w4_r2_s10 0
yb_w0_r0_s11 0
yb_w0_r1_s11 0
yb_w0_r2_s11 0
yb_w1_r0_s11 0
yb_w1_r1_s11 0
yb_w1_r2_s11 0
yb_w2_r0_s11 0
yb_w2_r1_s11 0
yb_w2_r2_s11 0
yb_w3_r0_s11 0
yb_w3_r1_s11 0
yb_w3_r2_s11 0
yb_w4_r0_s11 0
yb_w4_r1_s11 0
yb_w4_r2_s11 0
yb_w0_r0_s12 0
yb_w0_r1_s12 0
yb_w0_r2_s12 0
yb_w1_r0_s12 0
yb_w1_r1_s12 0
yb_w1_r2_s12 0
yb_w2_r0_s12 0
yb_w2_r1_s12 0
yb_w2_r2_s12 0
yb_w3_r0_s12 0
yb_w3_r1_s12 0
yb_w3_r2_s12 0
yb_w4_r0_s12 0
yb_w4_r1_s12 0
yb_w4_r2_s12 0
yb_w0_r0_s13 0
yb_w0_r1_s13 0
yb_w0_r2_s13 0
yb_w1_r0_s13 0
yb_w1_r1_s13 0
yb_w1_r2_s13 0
yb_w2_r0_s13 0
yb_w2_r1_s13 0
yb_w2_r2_s13 0
yb_w3_r0_s13 0
yb_w3_r1_s13 0
yb_w3_r2_s13 0
yb_w4_r0_s13 0
yb_w4_r1_s13 0
yb_w4_r2_s13 0
yb_w0_r0_s14 0
yb_w0_r1_s14 0
yb_w0_r2_s14 0
yb_w1_r0_s14 0
yb_w1_r1_s14 0
yb_w1_r2_s14 0
yb_w2_r0_s14 0
yb_w2_r1_s14 0
yb_w2_r2_s14 0
yb_w3_r0_s14 0
yb_w3_r1_s14 0
yb_w3_r2_s14 0
yb_w4_r0_s14 0
yb_w4_r1_s14 0
yb_w4_r2_s14 0
X(s0,w0,r0) 0
X(s0,w0,r1) 0
X(s0,w0,r2) 0
X(s0,w1,r0) 0
X(s0,w1,r1) 0
X(s0,w1,r2) 0
X(s0,w2,r0) 0
X(s0,w2,r1) 0
X(s0,w2,r2) 0
X(s0,w3,r0) 0
X(s0,w3,r1) 0
X(s0,w3,r2) 0
X(s0,w4,r0) 0
X(s0,w4,r1) 0
X(s0,w4,r2) 1
X(s1,w0,r0) 0
X(s1,w0,r1) 0
X(s1,w0,r2) 0
X(s1,w1,r0) 0
X(s1,w1,r1) 0
X(s1,w1,r2) 0
X(s1,w2,r0) 0
X(s1,w2,r1) 0
X(s1,w2,r2) 0
X(s1,w3,r0) 0
X(s1,w3,r1) 0
X(s1,w3,r2) 0
X(s1,w4,r0) 0
X(s1,w4,r1) 0
X(s1,w4,r2) 0
X(s2,w0,r0) 0
X(s2,w0,r1) 0
X(s2,w0,r2) 0
X(s2,w1,r0) 0
X(s2,w1,r1) 0
X(s2,w1,r2) 0
X(s2,w2,r0) 0
X(s2,w2,r1) 0
X(s2,w2,r2) 0
X(s2,w3,r0) 0
X(s2,w3,r1) 0
X(s2,w3,r2) 0
X(s2,w4,r0) 0
X(s2,w4,r1) 0
X(s2,w4,r2) 0
X(s3,w0,r0) 0
X(s3,w0,r1) 0
X(s3,w0,r2) 0
X(s3,w1,r0) 0
X(s3,w1,r1) 0
X(s3,w1,r2) 0
X(s3,w2,r0) 0
X(s3,w2,r1) 0
X(s3,w2,r2) 0
X(s3,w3,r0) 0
X(s3,w3,r1) 0
X(s3,w3,r2) 0
X(s3,w4,r0) 0
X(s3,w4,r1) 0
X(s3,w4,r2) 0
X(s4,w0,r0) 0
X(s4,w0,r1) 0
X(s4,w0,r2) 0
X(s4,w1,r0) 0
X(s4,w1,r1) 0
X(s4,w1,r2) 0
X(s4,w2,r0) 0
X(s4,w2,r1) 0
X(s4,w2,r2) 0
X(s4,w3,r0) 0
X(s4,w3,r1) 0
X(s4,w3,r2) 0
X(s4,w4,r0) 0
X(s4,w4,r1) 0
X(s4,w4,r2) 0
X(s5,w0,r0) 0
X(s5,w0,r1) 0
X(s5,w0,r2) 0
X(s5,w1,r0) 0
X(s5,w1,r1) 0
X(s5,w1,r2) 0
X(s5,w2,r0) 0
X(s5,w2,r1) 0
X(s5,w2,r2) 0
X(s5,w3,r0) 0
X(s5,w3,r1) 0
X(s5,w3,r2) 0
X(s5,w4,r0) 0
X(s5,w4,r1) 0
X(s5,w4,r2) 0
X(s6,w0,r0) 0
X(s6,w0,r1) 0
X(s6,w0,r2) 0
X(s6,w1,r0) 0
X(s6,w1,r1) 0
X(s6,w1,r2) 0
X(s6,w2,r0) 0
X(s6,w2,r1) 0
X(s6,w2,r2) 0
X(s6,w3,r0) 0
X(s6,w3,r1) 0
X(s6,w3,r2) 0
X(s6,w4,r0) 0
X(s6,w4,r1) 0
X(s6,w4,r2) 0
X(s7,w0,r0) 0
X(s7,w0,r1) 0
X(s7,w0,r2) 0
X(s7,w1,r0) 0
X(s7,w1,r1) 0
X(s7,w1,r2) 0
X(s7,w2,r0) 0
X(s7,w2,r1) 0
X(s7,w2,r2) 0
X(s7,w3,r0) 0
X(s7,w3,r1) 0
X(s7,w3,r2) 0
X(s7,w4,r0) 0
X(s7,w4,r1) 0
X(s7,w4,r2) 0
X(s8,w0,r0) 0
X(s8,w0,r1) 0
X(s8,w0,r2) 0
X(s8,w1,r0) 0
X(s8,w1,r1) 0
X(s8,w1,r2) 0
X(s8,w2,r0) 0
X(s8,w2,r1) 0
X(s8,w2,r2) 0
X(s8,w3,r0) 0
X(s8,w3,r1) 0
X(s8,w3,r2) 0
X(s8,w4,r0) 0
X(s8,w4,r1) 0
X(s8,w4,r2) 0
X(s9,w0,r0) 0
X(s9,w0,r1) 0
X(s9,w0,r2) 0
X(s9,w1,r0) 0
X(s9,w1,r1) 0
X(s9,w1,r2) 0
X(s9,w2,r0) 0
X(s9,w2,r1) 0
X(s9,w2,r2) 0
X(s9,w3,r0) 0
X(s9,w3,r1) 0
X(s9,w3,r2) 0
X(s9,w4,r0) 0
X(s9,w4,r1) 0
X(s9,w4,r2) 0
X(s10,w0,r0) 0
X(s10,w0,r1) 0
X(s10,w0,r2) 0
X(s10,w1,r0) 0
X(s10,w1,r1) 0
X(s10,w1,r2) 0
X(s10,w2,r0) 0
X(s10,w2,r1) 0
X(s10,w2,r2) 0
X(s10,w3,r0) 0
X(s10,w3,r1) 0
X(s10,w3,r2) 0
X(s10,w4,r0) 0
X(s10,w4,r1) 0
X(s10,w4,r2) 0
X(s11,w0,r0) 0
X(s11,w0,r1) 0
X(s11,w0,r2) 0
X(s11,w1,r0) 0
X(s11,w1,r1) 0
X(s11,w1,r2) 0
X(s11,w2,r0) 0
X(s11,w2,r1) 0
X(s11,w2,r2) 0
X(s11,w3,r0) 0
X(s11,w3,r1) 0
X(s11,w3,r2) 0
X(s11,w4,r0) 0
X(s11,w4,r1) 0
X(s11,w4,r2) 0
X(s12,w0,r0) 0
X(s12,w0,r1) 0
X(s12,w0,r2) 0
X(s12,w1,r0) 0
X(s12,w1,r1) 0
X(s12,w1,r2) 0
X(s12,w2,r0) 0
X(s12,w2,r1) 0
X(s12,w2,r2) 0
X(s12,w3,r0) 0
X(s12,w3,r1) 0
X(s12,w3,r2) 0
X(s12,w4,r0) 0
X(s12,w4,r1) 0
X(s12,w4,r2) 0
X(s13,w0,r0) 0
X(s13,w0,r1) 0
X(s13,w0,r2) 0
X(s13,w1,r0) 0
X(s13,w1,r1) 0
X(s13,w1,r2) 0
X(s13,w2,r0) 0
X(s13,w2,r1) 0
X(s13,w2,r2) 0
X(s13,w3,r0) 0
X(s13,w3,r1) 0
X(s13,w3,r2) 0
X(s13,w4,r0) 0
X(s13,w4,r1) 0
X(s13,w4,r2) 0
X(s14,w0,r0) 0
X(s14,w0,r1) 0
X(s14,w0,r2) 0
X(s14,w1,r0) 0
X(s14,w1,r1) 0
X(s14,w1,r2) 0
X(s14,w2,r0) 0
X(s14,w2,r1) 0
X(s14,w2,r2) 0
X(s14,w3,r0) 0
X(s14,w3,r1) 0
X(s14,w3,r2) 0
X(s14,w4,r0) 0
X(s14,w4,r1) 0
X(s14,w4,r2) 0
